c nIsolatedPIs 0
c maxPI 32
p cnf 221 568
c gate 33 -14 -30 0
-14 -33 0
-30 -33 0
14 30 33 0
c gate 34 14 30 0
14 -34 0
30 -34 0
-14 -30 34 0
c gate 35 -33 -34 0
-33 -35 0
-34 -35 0
33 34 35 0
c gate 36 12 28 0
12 -36 0
28 -36 0
-12 -28 36 0
c gate 37 13 29 0
13 -37 0
29 -37 0
-13 -29 37 0
c gate 38 -36 -37 0
-36 -38 0
-37 -38 0
36 37 38 0
c gate 39 35 -38 0
35 -39 0
-38 -39 0
-35 38 39 0
c gate 40 -35 38 0
-35 -40 0
38 -40 0
35 -38 40 0
c gate 41 -39 -40 0
-39 -41 0
-40 -41 0
39 40 41 0
c gate 42 -13 -29 0
-13 -42 0
-29 -42 0
13 29 42 0
c gate 43 -12 -28 0
-12 -43 0
-28 -43 0
12 28 43 0
c gate 44 -36 -43 0
-36 -44 0
-43 -44 0
36 43 44 0
c gate 45 -11 -27 0
-11 -45 0
-27 -45 0
11 27 45 0
c gate 46 -10 -26 0
-10 -46 0
-26 -46 0
10 26 46 0
c gate 47 9 25 0
9 -47 0
25 -47 0
-9 -25 47 0
c gate 48 -2 -18 0
-2 -48 0
-18 -48 0
2 18 48 0
c gate 49 1 17 0
1 -49 0
17 -49 0
-1 -17 49 0
c gate 50 -48 49 0
-48 -50 0
49 -50 0
48 -49 50 0
c gate 51 3 19 0
3 -51 0
19 -51 0
-3 -19 51 0
c gate 52 2 18 0
2 -52 0
18 -52 0
-2 -18 52 0
c gate 53 -51 -52 0
-51 -53 0
-52 -53 0
51 52 53 0
c gate 54 -50 53 0
-50 -54 0
53 -54 0
50 -53 54 0
c gate 55 -4 -20 0
-4 -55 0
-20 -55 0
4 20 55 0
c gate 56 -3 -19 0
-3 -56 0
-19 -56 0
3 19 56 0
c gate 57 -55 -56 0
-55 -57 0
-56 -57 0
55 56 57 0
c gate 58 -54 57 0
-54 -58 0
57 -58 0
54 -57 58 0
c gate 59 4 20 0
4 -59 0
20 -59 0
-4 -20 59 0
c gate 60 5 21 0
5 -60 0
21 -60 0
-5 -21 60 0
c gate 61 -59 -60 0
-59 -61 0
-60 -61 0
59 60 61 0
c gate 62 -58 61 0
-58 -62 0
61 -62 0
58 -61 62 0
c gate 63 -5 -21 0
-5 -63 0
-21 -63 0
5 21 63 0
c gate 64 -6 -22 0
-6 -64 0
-22 -64 0
6 22 64 0
c gate 65 -63 -64 0
-63 -65 0
-64 -65 0
63 64 65 0
c gate 66 -62 65 0
-62 -66 0
65 -66 0
62 -65 66 0
c gate 67 6 22 0
6 -67 0
22 -67 0
-6 -22 67 0
c gate 68 7 -23 0
7 -68 0
-23 -68 0
-7 23 68 0
c gate 69 -7 23 0
-7 -69 0
23 -69 0
7 -23 69 0
c gate 70 -68 -69 0
-68 -70 0
-69 -70 0
68 69 70 0
c gate 71 -67 -70 0
-67 -71 0
-70 -71 0
67 70 71 0
c gate 72 -66 71 0
-66 -72 0
71 -72 0
66 -71 72 0
c gate 73 8 24 0
8 -73 0
24 -73 0
-8 -24 73 0
c gate 74 -8 -24 0
-8 -74 0
-24 -74 0
8 24 74 0
c gate 75 -73 -74 0
-73 -75 0
-74 -75 0
73 74 75 0
c gate 76 72 75 0
72 -76 0
75 -76 0
-72 -75 76 0
c gate 77 -7 -23 0
-7 -77 0
-23 -77 0
7 23 77 0
c gate 78 -73 77 0
-73 -78 0
77 -78 0
73 -77 78 0
c gate 79 -9 -25 0
-9 -79 0
-25 -79 0
9 25 79 0
c gate 80 -74 -79 0
-74 -80 0
-79 -80 0
74 79 80 0
c gate 81 -78 80 0
-78 -81 0
80 -81 0
78 -80 81 0
c gate 82 -76 81 0
-76 -82 0
81 -82 0
76 -81 82 0
c gate 83 -47 -82 0
-47 -83 0
-82 -83 0
47 82 83 0
c gate 84 -46 -83 0
-46 -84 0
-83 -84 0
46 83 84 0
c gate 85 11 27 0
11 -85 0
27 -85 0
-11 -27 85 0
c gate 86 10 26 0
10 -86 0
26 -86 0
-10 -26 86 0
c gate 87 -85 -86 0
-85 -87 0
-86 -87 0
85 86 87 0
c gate 88 -84 87 0
-84 -88 0
87 -88 0
84 -87 88 0
c gate 89 -45 -88 0
-45 -89 0
-88 -89 0
45 88 89 0
c gate 90 44 89 0
44 -90 0
89 -90 0
-44 -89 90 0
c gate 91 38 -90 0
38 -91 0
-90 -91 0
-38 90 91 0
c gate 92 -42 -91 0
-42 -92 0
-91 -92 0
42 91 92 0
c gate 93 35 -92 0
35 -93 0
-92 -93 0
-35 92 93 0
c gate 94 -35 92 0
-35 -94 0
92 -94 0
35 -92 94 0
c gate 95 -93 -94 0
-93 -95 0
-94 -95 0
93 94 95 0
c gate 96 41 95 0
41 -96 0
95 -96 0
-41 -95 96 0
c gate 97 -41 -95 0
-41 -97 0
-95 -97 0
41 95 97 0
c gate 98 -96 -97 0
-96 -98 0
-97 -98 0
96 97 98 0
c gate 99 -45 -85 0
-45 -99 0
-85 -99 0
45 85 99 0
c gate 100 10 -26 0
10 -100 0
-26 -100 0
-10 26 100 0
c gate 101 8 -24 0
8 -101 0
-24 -101 0
-8 24 101 0
c gate 102 -47 -79 0
-47 -102 0
-79 -102 0
47 79 102 0
c gate 103 -101 -102 0
-101 -103 0
-102 -103 0
101 102 103 0
c gate 104 -10 26 0
-10 -104 0
26 -104 0
10 -26 104 0
c gate 105 -9 25 0
-9 -105 0
25 -105 0
9 -25 105 0
c gate 106 -104 -105 0
-104 -106 0
-105 -106 0
104 105 106 0
c gate 107 -103 106 0
-103 -107 0
106 -107 0
103 -106 107 0
c gate 108 -100 -107 0
-100 -108 0
-107 -108 0
100 107 108 0
c gate 109 -2 18 0
-2 -109 0
18 -109 0
2 -18 109 0
c gate 110 -1 17 0
-1 -110 0
17 -110 0
1 -17 110 0
c gate 111 -109 -110 0
-109 -111 0
-110 -111 0
109 110 111 0
c gate 112 2 -18 0
2 -112 0
-18 -112 0
-2 18 112 0
c gate 113 3 -19 0
3 -113 0
-19 -113 0
-3 19 113 0
c gate 114 -112 -113 0
-112 -114 0
-113 -114 0
112 113 114 0
c gate 115 -111 114 0
-111 -115 0
114 -115 0
111 -114 115 0
c gate 116 -4 20 0
-4 -116 0
20 -116 0
4 -20 116 0
c gate 117 -3 19 0
-3 -117 0
19 -117 0
3 -19 117 0
c gate 118 -116 -117 0
-116 -118 0
-117 -118 0
116 117 118 0
c gate 119 -115 118 0
-115 -119 0
118 -119 0
115 -118 119 0
c gate 120 5 -21 0
5 -120 0
-21 -120 0
-5 21 120 0
c gate 121 4 -20 0
4 -121 0
-20 -121 0
-4 20 121 0
c gate 122 -120 -121 0
-120 -122 0
-121 -122 0
120 121 122 0
c gate 123 -119 122 0
-119 -123 0
122 -123 0
119 -122 123 0
c gate 124 -64 -67 0
-64 -124 0
-67 -124 0
64 67 124 0
c gate 125 -5 21 0
-5 -125 0
21 -125 0
5 -21 125 0
c gate 126 -124 -125 0
-124 -126 0
-125 -126 0
124 125 126 0
c gate 127 -123 126 0
-123 -127 0
126 -127 0
123 -126 127 0
c gate 128 -69 127 0
-69 -128 0
127 -128 0
69 -127 128 0
c gate 129 6 -22 0
6 -129 0
-22 -129 0
-6 22 129 0
c gate 130 -69 129 0
-69 -130 0
129 -130 0
69 -129 130 0
c gate 131 -68 -130 0
-68 -131 0
-130 -131 0
68 130 131 0
c gate 132 -128 131 0
-128 -132 0
131 -132 0
128 -131 132 0
c gate 133 -75 -132 0
-75 -133 0
-132 -133 0
75 132 133 0
c gate 134 106 133 0
106 -134 0
133 -134 0
-106 -133 134 0
c gate 135 108 -134 0
108 -135 0
-134 -135 0
-108 134 135 0
c gate 136 -99 135 0
-99 -136 0
135 -136 0
99 -135 136 0
c gate 137 -15 -31 0
-15 -137 0
-31 -137 0
15 31 137 0
c gate 138 15 31 0
15 -138 0
31 -138 0
-15 -31 138 0
c gate 139 -137 -138 0
-137 -139 0
-138 -139 0
137 138 139 0
c gate 140 -33 -93 0
-33 -140 0
-93 -140 0
33 93 140 0
c gate 141 139 -140 0
139 -141 0
-140 -141 0
-139 140 141 0
c gate 142 -137 -141 0
-137 -142 0
-141 -142 0
137 141 142 0
c gate 143 -34 -39 0
-34 -143 0
-39 -143 0
34 39 143 0
c gate 144 139 -143 0
139 -144 0
-143 -144 0
-139 143 144 0
c gate 145 -138 -144 0
-138 -145 0
-144 -145 0
138 144 145 0
c gate 146 16 -32 0
16 -146 0
-32 -146 0
-16 32 146 0
c gate 147 -16 32 0
-16 -147 0
32 -147 0
16 -32 147 0
c gate 148 -146 -147 0
-146 -148 0
-147 -148 0
146 147 148 0
c gate 149 145 -148 0
145 -149 0
-148 -149 0
-145 148 149 0
c gate 150 142 149 0
142 -150 0
149 -150 0
-142 -149 150 0
c gate 151 -127 -150 0
-127 -151 0
-150 -151 0
127 150 151 0
c gate 152 -47 -86 0
-47 -152 0
-86 -152 0
47 86 152 0
c gate 153 -81 152 0
-81 -153 0
152 -153 0
81 -152 153 0
c gate 154 -45 -46 0
-45 -154 0
-46 -154 0
45 46 154 0
c gate 155 -153 154 0
-153 -155 0
154 -155 0
153 -154 155 0
c gate 156 -85 -155 0
-85 -156 0
-155 -156 0
85 155 156 0
c gate 157 -44 89 0
-44 -157 0
89 -157 0
44 -89 157 0
c gate 158 156 -157 0
156 -158 0
-157 -158 0
-156 157 158 0
c gate 159 44 -89 0
44 -159 0
-89 -159 0
-44 89 159 0
c gate 160 -156 -159 0
-156 -160 0
-159 -160 0
156 159 160 0
c gate 161 -158 -160 0
-158 -161 0
-160 -161 0
158 160 161 0
c gate 162 98 161 0
98 -162 0
161 -162 0
-98 -161 162 0
c gate 163 -145 148 0
-145 -163 0
148 -163 0
145 -148 163 0
c gate 164 -149 -163 0
-149 -164 0
-163 -164 0
149 163 164 0
c gate 165 142 148 0
142 -165 0
148 -165 0
-142 -148 165 0
c gate 166 -142 -148 0
-142 -166 0
-148 -166 0
142 148 166 0
c gate 167 -165 -166 0
-165 -167 0
-166 -167 0
165 166 167 0
c gate 168 -164 167 0
-164 -168 0
167 -168 0
164 -167 168 0
c gate 169 164 -167 0
164 -169 0
-167 -169 0
-164 167 169 0
c gate 170 -139 143 0
-139 -170 0
143 -170 0
139 -143 170 0
c gate 171 -144 -170 0
-144 -171 0
-170 -171 0
144 170 171 0
c gate 172 -139 140 0
-139 -172 0
140 -172 0
139 -140 172 0
c gate 173 -141 -172 0
-141 -173 0
-172 -173 0
141 172 173 0
c gate 174 -171 -173 0
-171 -174 0
-173 -174 0
171 173 174 0
c gate 175 171 173 0
171 -175 0
173 -175 0
-171 -173 175 0
c gate 176 -37 -42 0
-37 -176 0
-42 -176 0
37 42 176 0
c gate 177 90 -176 0
90 -177 0
-176 -177 0
-90 176 177 0
c gate 178 -97 -177 0
-97 -178 0
-177 -178 0
97 177 178 0
c gate 179 -175 -178 0
-175 -179 0
-178 -179 0
175 178 179 0
c gate 180 -174 -179 0
-174 -180 0
-179 -180 0
174 179 180 0
c gate 181 -169 180 0
-169 -181 0
180 -181 0
169 -180 181 0
c gate 182 -168 -181 0
-168 -182 0
-181 -182 0
168 181 182 0
c gate 183 -162 -182 0
-162 -183 0
-182 -183 0
162 182 183 0
c gate 184 -76 -90 0
-76 -184 0
-90 -184 0
76 90 184 0
c gate 185 98 184 0
98 -185 0
184 -185 0
-98 -184 185 0
c gate 186 -183 -185 0
-183 -186 0
-185 -186 0
183 185 186 0
c gate 187 151 186 0
151 -187 0
186 -187 0
-151 -186 187 0
c gate 188 -70 127 0
-70 -188 0
127 -188 0
70 -127 188 0
c gate 189 -127 -148 0
-127 -189 0
-148 -189 0
127 148 189 0
c gate 190 169 189 0
169 -190 0
189 -190 0
-169 -189 190 0
c gate 191 -188 -190 0
-188 -191 0
-190 -191 0
188 190 191 0
c gate 192 -187 191 0
-187 -192 0
191 -192 0
187 -191 192 0
c gate 193 75 131 0
75 -193 0
131 -193 0
-75 -131 193 0
c gate 194 -132 193 0
-132 -194 0
193 -194 0
132 -193 194 0
c gate 195 192 -194 0
192 -195 0
-194 -195 0
-192 194 195 0
c gate 196 -133 -195 0
-133 -196 0
-195 -196 0
133 195 196 0
c gate 197 -100 -104 0
-100 -197 0
-104 -197 0
100 104 197 0
c gate 198 -102 197 0
-102 -198 0
197 -198 0
102 -197 198 0
c gate 199 133 -198 0
133 -199 0
-198 -199 0
-133 198 199 0
c gate 200 -196 -199 0
-196 -200 0
-199 -200 0
196 199 200 0
c gate 201 99 -135 0
99 -201 0
-135 -201 0
-99 135 201 0
c gate 202 -136 -201 0
-136 -202 0
-201 -202 0
136 201 202 0
c gate 203 108 -202 0
108 -203 0
-202 -203 0
-108 202 203 0
c gate 204 200 -203 0
200 -204 0
-203 -204 0
-200 203 204 0
c gate 205 -136 -204 0
-136 -205 0
-204 -205 0
136 204 205 0
c gate 206 -35 -139 0
-35 -206 0
-139 -206 0
35 139 206 0
c gate 207 -44 148 0
-44 -207 0
148 -207 0
44 -148 207 0
c gate 208 -176 207 0
-176 -208 0
207 -208 0
176 -207 208 0
c gate 209 206 208 0
206 -209 0
208 -209 0
-206 -208 209 0
c gate 210 136 209 0
136 -210 0
209 -210 0
-136 -209 210 0
c gate 211 -205 -210 0
-205 -211 0
-210 -211 0
205 210 211 0
c gate 212 -161 -177 0
-161 -212 0
-177 -212 0
161 177 212 0
c gate 213 211 -212 0
211 -213 0
-212 -213 0
-211 212 213 0
c gate 214 72 -161 0
72 -214 0
-161 -214 0
-72 161 214 0
c gate 215 -90 -214 0
-90 -215 0
-214 -215 0
90 214 215 0
c gate 216 -177 -215 0
-177 -216 0
-215 -216 0
177 215 216 0
c gate 217 -211 216 0
-211 -217 0
216 -217 0
211 -216 217 0
c gate 218 -213 -217 0
-213 -218 0
-217 -218 0
213 217 218 0
c gate 219 98 -218 0
98 -219 0
-218 -219 0
-98 218 219 0
c gate 220 -98 218 0
-98 -220 0
218 -220 0
98 -218 220 0
c gate 221 -219 -220 0
-219 -221 0
-220 -221 0
219 220 221 0
c PO
-221 0
